\* Problem: Unknown *\

Maximize
 obj: + xp_0_0 + xp_0_1 + xp_1_0 + xp_2_0 + xp_2_1 + xp_3_0 + xp_3_1
 + xp_4_0 + xp_5_0 + xp_6_0 + xp_6_1 + xp_7_0 + xp_8_0 + xp_9_0
 + xp_10_0 + xp_10_1 + xp_11_0 + xp_12_0 + xp_12_1 + xp_13_0 + xp_14_0
 + xp_15_0 + xp_15_1 + xp_16_0 + xp_17_0 + xp_17_1 + xp_18_0 + xp_18_1
 + xp_19_0 + xp_20_0 + xp_21_0 + xp_21_1 + xp_21_2 + xp_21_3 + xp_22_0
 + xp_22_1 + xp_22_2 + xp_22_3 + xp_23_0 + xp_24_0 + xp_24_1 + xp_25_0
 + xp_26_0 + xp_27_0 + xp_28_0 + xp_28_1 + xp_29_0 + xp_29_1 + xp_30_0
 + xp_31_0 + xp_31_1 + xp_32_0 + xp_33_0 + xp_34_0 + xp_35_0 + xp_36_0
 + xp_37_0 + xp_38_0 + xp_38_1 + xp_39_0 + xp_40_0 + xp_40_1 + xp_41_0
 + xp_42_0 + xp_42_1 + xp_43_0 + xp_44_0 + xp_45_0 + xp_46_0 + xp_47_0
 + xp_48_0 + xp_48_1 + xp_49_0 + xp_50_0 + xp_51_0 + xp_52_0 + xp_52_1
 + xp_53_0 + xp_54_0 + xp_55_0 + xp_56_0 + xp_57_0 + xp_58_0 + xp_58_1
 + xp_59_0 + xp_60_0 + xp_60_1 + xp_60_2 + xp_61_0 + xp_62_0 + xp_63_0
 + xp_63_1 + xp_64_0 + xp_65_0

Subject To
 r_1: + xp_53_0 + xp_51_0 + xp_42_1 + xp_40_0 + xp_35_0 + xp_33_0
 <= 153.637538779731
 r_2: + xp_58_1 + xp_15_1 <= 155
 r_3: + xp_56_0 + xp_21_0 + xp_12_0 <= 155
 r_4: + xp_65_0 + xp_50_0 + xp_45_0 + xp_24_1 + xp_24_0 + xp_21_2
 + xp_15_0 + xp_10_1 + xp_10_0 + xp_5_0 + xp_2_1 <= 140.768902785674
 r_5: + xp_38_0 + xp_31_1 + xp_17_0 + xp_14_0 <= 140.768902785674
 r_6: + xp_52_1 + xp_22_3 + xp_22_2 + xp_22_0 + xp_21_3 + xp_21_1
 + xp_13_0 + xp_12_1 + xp_3_0 + xp_2_0 <= 149.23665791776
 r_7: + xp_60_2 + xp_60_1 + xp_48_1 + xp_46_0 + xp_42_0 + xp_40_1
 + xp_0_0 <= 151.25355450237
 r_8: 0 xp_0_0 <= 150.204731574158
 r_9: + xp_64_0 + xp_63_1 + xp_29_1 + xp_25_0 + xp_21_0 + xp_6_0
 <= 153.637538779731
 r_10: + xp_63_0 <= 148.340353833193
 r_11: + xp_60_0 + xp_38_1 + xp_31_0 <= 155
 r_12: + xp_62_0 + xp_61_0 + xp_60_2 + xp_60_1 + xp_22_1 + xp_3_1
 <= 149.23665791776
 r_13: + xp_64_0 + xp_59_0 + xp_58_1 + xp_56_0 + xp_29_1 + xp_29_0
 + xp_21_0 + xp_20_0 + xp_15_1 + xp_12_0 <= 153.637538779731
 r_14: + xp_60_2 + xp_57_0 + xp_53_0 + xp_42_1 + xp_35_0 + xp_18_0
 <= 153.637538779731
 r_15: + xp_63_1 + xp_58_0 <= 151.25355450237
 r_16: + xp_65_0 + xp_55_0 + xp_53_0 + xp_51_0 + xp_50_0 + xp_10_1
 + xp_10_0 <= 155
 r_17: + xp_58_1 + xp_54_0 + xp_52_1 + xp_36_0 + xp_31_1
 <= 140.768902785674
 r_18: + xp_52_0 + xp_21_2 + xp_2_1 <= 155
 r_19: + xp_60_0 + xp_48_0 <= 150.204731574158
 r_20: + xp_50_0 + xp_49_0 + xp_48_1 + xp_46_0 + xp_45_0 + xp_22_2
 + xp_21_1 + xp_10_1 <= 140.768902785674
 r_21: + xp_47_0 + xp_26_0 + xp_22_1 + xp_17_1 + xp_17_0 + xp_7_0
 + xp_3_1 <= 155
 r_22: + xp_61_0 + xp_60_2 + xp_60_1 + xp_43_0 + xp_42_0 + xp_40_1
 + xp_38_0 <= 149.23665791776
 r_23: + xp_56_0 + xp_52_1 + xp_52_0 + xp_41_0 + xp_38_1 + xp_34_0
 + xp_31_0 <= 149.23665791776
 r_24: + xp_62_0 + xp_44_0 + xp_42_1 + xp_40_0 + xp_39_0 + xp_21_3
 + xp_21_1 + xp_12_1 + xp_2_0 <= 149.23665791776
 r_25: + xp_62_0 + xp_44_0 + xp_42_1 + xp_40_0 + xp_37_0 + xp_35_0
 + xp_33_0 <= 155
 r_26: + xp_39_0 + xp_36_0 + xp_32_0 + xp_31_1 <= 155
 r_27: + xp_56_0 + xp_52_0 + xp_34_0 + xp_31_0 + xp_30_0
 <= 149.23665791776
 r_28: + xp_60_1 + xp_60_0 + xp_48_1 + xp_48_0 + xp_42_0 + xp_29_1
 + xp_27_0 + xp_25_0 + xp_21_0 + xp_18_1 + xp_8_0 + xp_6_0
 <= 148.340353833193
 r_29: + xp_29_0 + xp_28_0 + xp_24_1 + xp_22_0 + xp_6_1 + xp_0_1
 <= 151.25355450237
 r_30: + xp_63_0 + xp_28_1 + xp_26_0 + xp_24_0 + xp_23_0 + xp_22_3
 + xp_22_2 + xp_22_1 + xp_21_3 + xp_21_2 + xp_21_1 + xp_17_1
 <= 150.204731574158
 r_31: + xp_63_1 + xp_58_0 + xp_28_0 + xp_24_1 + xp_22_0 + xp_19_0
 + xp_17_0 + xp_15_0 + xp_14_0 + xp_13_0 + xp_12_1 <= 151.25355450237
 r_32: + xp_60_2 + xp_46_0 + xp_40_1 + xp_29_0 + xp_20_0 + xp_18_0
 + xp_16_0 + xp_15_1 + xp_12_0 + xp_6_1 <= 151.25355450237
 r_33: + xp_60_1 + xp_48_1 + xp_42_0 + xp_18_1 + xp_17_1 + xp_11_0
 <= 151.25355450237
 r_34: + xp_26_0 + xp_23_0 + xp_22_2 + xp_22_1 + xp_21_1 + xp_17_1
 + xp_10_1 + xp_7_0 + xp_4_0 + xp_3_1 <= 150.204731574158
 r_35: + xp_60_0 + xp_48_0 + xp_8_0 + xp_6_1 + xp_6_0 + xp_1_0 + xp_0_1
 <= 150.204731574158
 r_36: + xp_63_0 + xp_28_1 + xp_24_0 + xp_22_3 + xp_21_3 + xp_21_2
 + xp_10_0 + xp_9_0 + xp_5_0 + xp_3_0 + xp_2_1 + xp_2_0 + xp_0_0
 <= 150.204731574158

Bounds
 0 <= xp_0_0 <= 11.1490225009222
 0 <= xp_0_1 <= 16.7235337513833
 0 <= xp_1_0 <= 22.5839173736628
 0 <= xp_2_0 <= 19.8967170785688
 0 <= xp_2_1 <= 4.9741792696422
 0 <= xp_3_0 <= 5.77462191073405
 0 <= xp_3_1 <= 8.66193286610107
 0 <= xp_4_0 <= 28.3013648100332
 0 <= xp_5_0 <= 22.5839173736628
 0 <= xp_6_0 <= 10.405754334194
 0 <= xp_6_1 <= 15.608631501291
 0 <= xp_7_0 <= 22.0121726300258
 0 <= xp_8_0 <= 25.0138325341202
 0 <= xp_9_0 <= 17.4382146809295
 0 <= xp_10_0 <= 9.77683511619328
 0 <= xp_10_1 <= 6.51789007746219
 0 <= xp_11_0 <= 25.5855772777573
 0 <= xp_12_0 <= 6.6894135005533
 0 <= xp_12_1 <= 10.0341202508299
 0 <= xp_13_0 <= 15.0082995204721
 0 <= xp_14_0 <= 22.7268535595721
 0 <= xp_15_0 <= 11.3205459240133
 0 <= xp_15_1 <= 16.9808188860199
 0 <= xp_16_0 <= 27.0149391368499
 0 <= xp_17_0 <= 14.2364441165622
 0 <= xp_17_1 <= 9.49096274437477
 0 <= xp_18_0 <= 8.11877535964589
 0 <= xp_18_1 <= 12.1781630394688
 0 <= xp_19_0 <= 19.5822574695684
 0 <= xp_20_0 <= 23.2985983032091
 0 <= xp_21_0 <= 3.74492807082257
 0 <= xp_21_1 <= 3.74492807082257
 0 <= xp_21_2 <= 7.48985614164515
 0 <= xp_21_3 <= 3.74492807082257
 0 <= xp_22_0 <= 4.54537071191442
 0 <= xp_22_1 <= 4.54537071191442
 0 <= xp_22_2 <= 9.09074142382884
 0 <= xp_22_3 <= 4.54537071191442
 0 <= xp_23_0 <= 23.4415344891184
 0 <= xp_24_0 <= 7.31833271855404
 0 <= xp_24_1 <= 10.9774990778311
 0 <= xp_25_0 <= 27.8725562523054
 0 <= xp_26_0 <= 18.5817041682036
 0 <= xp_27_0 <= 15.0082995204721
 0 <= xp_28_0 <= 19.7823681298414
 0 <= xp_28_1 <= 4.94559203246035
 0 <= xp_29_0 <= 17.9527849502029
 0 <= xp_29_1 <= 4.48819623755072
 0 <= xp_30_0 <= 27.7296200663962
 0 <= xp_31_0 <= 3.57340464773146
 0 <= xp_31_1 <= 14.2936185909259
 0 <= xp_32_0 <= 15.7229804500184
 0 <= xp_33_0 <= 18.8675765400221
 0 <= xp_34_0 <= 22.7268535595721
 0 <= xp_35_0 <= 15.5800442641092
 0 <= xp_36_0 <= 18.0099594245666
 0 <= xp_37_0 <= 14.2936185909259
 0 <= xp_38_0 <= 10.6344522316488
 0 <= xp_38_1 <= 7.08963482109922
 0 <= xp_39_0 <= 15.1512357063814
 0 <= xp_40_0 <= 11.6635927701955
 0 <= xp_40_1 <= 7.77572851346367
 0 <= xp_41_0 <= 20.5828107709332
 0 <= xp_42_0 <= 9.60531169310217
 0 <= xp_42_1 <= 14.4079675396533
 0 <= xp_43_0 <= 17.0094061232018
 0 <= xp_44_0 <= 18.1528956104758
 0 <= xp_45_0 <= 15.0082995204721
 0 <= xp_46_0 <= 21.011619328661
 0 <= xp_47_0 <= 20.0110660272962
 0 <= xp_48_0 <= 16.9808188860199
 0 <= xp_48_1 <= 11.3205459240133
 0 <= xp_49_0 <= 14.8653633345629
 0 <= xp_50_0 <= 16.1517890077462
 0 <= xp_51_0 <= 24.1562154186647
 0 <= xp_52_0 <= 21.3832534120251
 0 <= xp_52_1 <= 5.34581335300627
 0 <= xp_53_0 <= 28.0154924382147
 0 <= xp_54_0 <= 27.5866838804869
 0 <= xp_55_0 <= 21.583364072298
 0 <= xp_56_0 <= 15.1512357063814
 0 <= xp_57_0 <= 17.8670232386573
 0 <= xp_58_0 <= 16.6377720398377
 0 <= xp_58_1 <= 11.0918480265585
 0 <= xp_59_0 <= 27.7296200663962
 0 <= xp_60_0 <= 10.5486905201033
 0 <= xp_60_1 <= 3.51623017336776
 0 <= xp_60_2 <= 3.51623017336776
 0 <= xp_61_0 <= 25.8714496495758
 0 <= xp_62_0 <= 27.5866838804869
 0 <= xp_63_0 <= 20.6971597196606
 0 <= xp_63_1 <= 5.17428992991516
 0 <= xp_64_0 <= 27.8725562523054
 0 <= xp_65_0 <= 20.1540022132055

End
